\ENCODING=ISO-8859-1
\Problem name: ilog.cplex

Maximize
 obj: x4 + x10 + x13
Subject To
 c1:  x10 <= 1
 c2:  x5 <= 1
 c3:  x15 <= 1
 c4:  x17 <= 1
 c5:  x11 <= 1
 c6:  x18 <= 1
 c7:  x2 <= 1
 c8:  x16 <= 1
 c9:  x8 <= 1
 c10: x12 <= 1
 c11: x6 + x14 <= 1
 c12: x1 <= 1
 c13: x3 <= 1
 c14: x4 <= 1
 c15: x13 <= 1
 c16: x9 <= 1
 c17: x7 <= 1
 c18: x11 <= 1
 c19: x6 <= 1
 c20: x16 <= 1
 c21: x12 <= 1
 c22: x3 <= 1
 c23: x17 <= 1
 c24: x1 <= 1
 c25: x13 + x18 <= 1
 c26: x2 + x9 <= 1
 c27: x4 + x7 <= 1
 c28: x5 <= 1
 c29: x14 <= 1
 c30: x10 + x15 <= 1
 c31: x8 <= 1
Bounds
 0 <= x1 <= 1
 0 <= x2 <= 1
 0 <= x3 <= 1
 0 <= x4 <= 1
 0 <= x5 <= 1
 0 <= x6 <= 1
 0 <= x7 <= 1
 0 <= x8 <= 1
 0 <= x9 <= 1
 0 <= x10 <= 1
 0 <= x11 <= 1
 0 <= x12 <= 1
 0 <= x13 <= 1
 0 <= x14 <= 1
 0 <= x15 <= 1
 0 <= x16 <= 1
 0 <= x17 <= 1
 0 <= x18 <= 1
Binaries
 x1  x2  x3  x4  x5  x6  x7  x8  x9  x10  x11  x12  x13  x14  x15  x16  x17 
 x18 
End
